<number of tasks>
50

<cycle time>
1000

<order strength>
0.198


<task times>
1 40
2 38
3 495
4 32
5 473
6 98
7 270
8 139
9 155
10 147
11 47
12 346
13 314
14 34
15 199
16 66
17 131
18 31
19 240
20 37
21 32
22 88
23 95
24 252
25 65
26 355
27 148
28 74
29 160
30 217
31 371
32 479
33 156
34 162
35 153
36 423
37 611
38 162
39 117
40 158
41 301
42 491
43 166
44 115
45 469
46 59
47 34
48 170
49 490
50 495

<precedence relations>
1,18
2,18
3,12
4,14
5,11
5,13
5,15
6,17
7,9
8,10
8,16
9,18
10,18
11,19
12,21
13,20
14,22
15,24
17,23
18,25
18,26
18,27
18,28
18,30
18,31
19,29
20,29
23,32
26,36
28,33
29,35
30,37
31,34
34,38
35,40
37,39
37,41
38,42
38,45
39,46
41,43
41,44
42,47
43,48
44,49
46,50

<end>
